; benchmark generated from python API
(set-info :status unknown)
(declare-fun ocupaf_0_0_0_1 () Bool)
(declare-fun ocupaf_0_0_0_0 () Bool)
(declare-fun ocupaf_0_0_1_1 () Bool)
(declare-fun ocupaf_0_0_1_0 () Bool)
(declare-fun ocupaf_0_1_0_1 () Bool)
(declare-fun ocupaf_0_1_0_0 () Bool)
(declare-fun ocupaf_0_1_1_1 () Bool)
(declare-fun ocupaf_0_1_1_0 () Bool)
(declare-fun x_0_0 () Bool)
(declare-fun ocupav_1_0_0_0 () Bool)
(declare-fun x_0_1 () Bool)
(declare-fun ocupav_1_0_0_1 () Bool)
(declare-fun ocupaf_1_0_0_1 () Bool)
(declare-fun ocupaf_1_0_0_0 () Bool)
(declare-fun ocupav_1_0_1_0 () Bool)
(declare-fun ocupav_1_0_1_1 () Bool)
(declare-fun ocupaf_1_0_1_1 () Bool)
(declare-fun ocupaf_1_0_1_0 () Bool)
(declare-fun ocupav_1_1_0_0 () Bool)
(declare-fun ocupav_1_1_0_1 () Bool)
(declare-fun ocupaf_1_1_0_1 () Bool)
(declare-fun ocupaf_1_1_0_0 () Bool)
(declare-fun ocupav_1_1_1_0 () Bool)
(declare-fun ocupav_1_1_1_1 () Bool)
(declare-fun ocupaf_1_1_1_1 () Bool)
(declare-fun ocupaf_1_1_1_0 () Bool)
(declare-fun x_1_0 () Bool)
(declare-fun ocupav_2_0_0_0 () Bool)
(declare-fun x_1_1 () Bool)
(declare-fun ocupav_2_0_0_1 () Bool)
(declare-fun ocupaf_2_0_0_1 () Bool)
(declare-fun ocupaf_2_0_0_0 () Bool)
(declare-fun ocupav_2_0_1_0 () Bool)
(declare-fun ocupav_2_0_1_1 () Bool)
(declare-fun ocupaf_2_0_1_1 () Bool)
(declare-fun ocupaf_2_0_1_0 () Bool)
(declare-fun ocupav_2_1_0_0 () Bool)
(declare-fun ocupav_2_1_0_1 () Bool)
(declare-fun ocupaf_2_1_0_1 () Bool)
(declare-fun ocupaf_2_1_0_0 () Bool)
(declare-fun ocupav_2_1_1_0 () Bool)
(declare-fun ocupav_2_1_1_1 () Bool)
(declare-fun ocupaf_2_1_1_1 () Bool)
(declare-fun ocupaf_2_1_1_0 () Bool)
(declare-fun var_0_0_0 () Int)
(declare-fun var_0_1_0 () Int)
(declare-fun var_1_0_0 () Int)
(declare-fun var_1_1_0 () Int)
(declare-fun var_2_0_0 () Int)
(declare-fun var_2_1_0 () Int)
(declare-fun x_2_0 () Bool)
(declare-fun ocupamv_0_0_0 () Bool)
(declare-fun x_2_1 () Bool)
(declare-fun ocupamv_0_0_1 () Bool)
(declare-fun ocupamf_0_1 () Bool)
(declare-fun ocupamf_0_0 () Bool)
(declare-fun ocupamv_0_1_0 () Bool)
(declare-fun ocupamv_0_1_1 () Bool)
(declare-fun ocupamv_1_0_0 () Bool)
(declare-fun ocupamv_1_0_1 () Bool)
(declare-fun ocupamf_1_1 () Bool)
(declare-fun ocupamf_1_0 () Bool)
(declare-fun ocupamv_1_1_0 () Bool)
(declare-fun ocupamv_1_1_1 () Bool)
(assert
 (let ((?x56 (ite ocupaf_0_0_0_1 1 0)))
 (let ((?x55 (ite ocupaf_0_0_0_0 1 0)))
 (let ((?x57 (+ ?x55 ?x56)))
 (<= ?x57 1)))))
(assert
 (let ((?x78 (ite ocupaf_0_0_1_1 1 0)))
 (let ((?x77 (ite ocupaf_0_0_1_0 1 0)))
 (let ((?x79 (+ ?x77 ?x78)))
 (<= ?x79 1)))))
(assert
 (let ((?x78 (ite ocupaf_0_0_1_1 1 0)))
 (let ((?x76 (ite ocupaf_0_0_1_0 2 0)))
 (let ((?x82 (+ (+ (ite ocupaf_0_0_0_0 2 0) (ite ocupaf_0_0_0_1 1 0)) ?x76)))
 (let ((?x83 (+ ?x82 ?x78)))
 (<= ?x83 2))))))
(assert
 (let ((?x78 (ite ocupaf_0_0_1_1 1 0)))
 (let ((?x77 (ite ocupaf_0_0_1_0 1 0)))
 (let ((?x79 (+ ?x77 ?x78)))
 (let ((?x56 (ite ocupaf_0_0_0_1 1 0)))
 (let ((?x55 (ite ocupaf_0_0_0_0 1 0)))
 (let ((?x57 (+ ?x55 ?x56)))
 (> (+ ?x57 ?x79) 1))))))))
(assert
 (let ((?x94 (ite ocupaf_0_1_0_1 1 0)))
 (let ((?x93 (ite ocupaf_0_1_0_0 1 0)))
 (let ((?x95 (+ ?x93 ?x94)))
 (<= ?x95 1)))))
(assert
 (let ((?x99 (ite ocupaf_0_1_1_1 1 0)))
 (let ((?x98 (ite ocupaf_0_1_1_0 1 0)))
 (let ((?x100 (+ ?x98 ?x99)))
 (<= ?x100 1)))))
(assert
 (let ((?x99 (ite ocupaf_0_1_1_1 1 0)))
 (let ((?x97 (ite ocupaf_0_1_1_0 2 0)))
 (let ((?x103 (+ (+ (ite ocupaf_0_1_0_0 2 0) (ite ocupaf_0_1_0_1 1 0)) ?x97)))
 (let ((?x104 (+ ?x103 ?x99)))
 (<= ?x104 2))))))
(assert
 (let ((?x99 (ite ocupaf_0_1_1_1 1 0)))
 (let ((?x98 (ite ocupaf_0_1_1_0 1 0)))
 (let ((?x100 (+ ?x98 ?x99)))
 (let ((?x94 (ite ocupaf_0_1_0_1 1 0)))
 (let ((?x93 (ite ocupaf_0_1_0_0 1 0)))
 (let ((?x95 (+ ?x93 ?x94)))
 (> (+ ?x95 ?x100) 1))))))))
(assert
 (=> ocupav_1_0_0_0 x_0_0))
(assert
 (=> ocupav_1_0_0_1 x_0_1))
(assert
 (let ((?x123 (ite ocupaf_1_0_0_1 1 0)))
 (let ((?x122 (ite ocupaf_1_0_0_0 1 0)))
 (let ((?x120 (ite ocupav_1_0_0_1 1 0)))
 (let ((?x116 (ite ocupav_1_0_0_0 1 0)))
 (let ((?x124 (+ ?x116 ?x120)))
 (let ((?x126 (+ (+ ?x124 ?x122) ?x123)))
 (<= ?x126 1))))))))
(assert
 (=> ocupav_1_0_1_0 x_0_0))
(assert
 (=> ocupav_1_0_1_1 x_0_1))
(assert
 (let ((?x140 (ite ocupaf_1_0_1_1 1 0)))
 (let ((?x139 (ite ocupaf_1_0_1_0 1 0)))
 (let ((?x142 (+ (+ (ite ocupav_1_0_1_0 1 0) (ite ocupav_1_0_1_1 1 0)) ?x139)))
 (let ((?x143 (+ ?x142 ?x140)))
 (<= ?x143 1))))))
(assert
 (let ((?x140 (ite ocupaf_1_0_1_1 1 0)))
 (let ((?x138 (ite ocupaf_1_0_1_0 2 0)))
 (let ((?x137 (ite ocupav_1_0_1_1 1 0)))
 (let ((?x133 (ite ocupav_1_0_1_0 1 0)))
 (let ((?x123 (ite ocupaf_1_0_0_1 1 0)))
 (let ((?x121 (ite ocupaf_1_0_0_0 2 0)))
 (let ((?x120 (ite ocupav_1_0_0_1 1 0)))
 (let ((?x116 (ite ocupav_1_0_0_0 1 0)))
 (let ((?x124 (+ ?x116 ?x120)))
 (<= (+ (+ (+ (+ (+ (+ ?x124 ?x121) ?x123) ?x133) ?x137) ?x138) ?x140) 2)))))))))))
(assert
 (let ((?x140 (ite ocupaf_1_0_1_1 1 0)))
 (let ((?x139 (ite ocupaf_1_0_1_0 1 0)))
 (let ((?x142 (+ (+ (ite ocupav_1_0_1_0 1 0) (ite ocupav_1_0_1_1 1 0)) ?x139)))
 (let ((?x143 (+ ?x142 ?x140)))
 (let ((?x123 (ite ocupaf_1_0_0_1 1 0)))
 (let ((?x122 (ite ocupaf_1_0_0_0 1 0)))
 (let ((?x120 (ite ocupav_1_0_0_1 1 0)))
 (let ((?x116 (ite ocupav_1_0_0_0 1 0)))
 (let ((?x124 (+ ?x116 ?x120)))
 (let ((?x126 (+ (+ ?x124 ?x122) ?x123)))
 (> (+ ?x126 ?x143) 1))))))))))))
(assert
 (=> ocupav_1_1_0_0 x_0_0))
(assert
 (=> ocupav_1_1_0_1 x_0_1))
(assert
 (let ((?x171 (ite ocupaf_1_1_0_1 1 0)))
 (let ((?x170 (ite ocupaf_1_1_0_0 1 0)))
 (let ((?x168 (ite ocupav_1_1_0_1 1 0)))
 (let ((?x164 (ite ocupav_1_1_0_0 1 0)))
 (let ((?x172 (+ ?x164 ?x168)))
 (let ((?x174 (+ (+ ?x172 ?x170) ?x171)))
 (<= ?x174 1))))))))
(assert
 (=> ocupav_1_1_1_0 x_0_0))
(assert
 (=> ocupav_1_1_1_1 x_0_1))
(assert
 (let ((?x188 (ite ocupaf_1_1_1_1 1 0)))
 (let ((?x187 (ite ocupaf_1_1_1_0 1 0)))
 (let ((?x190 (+ (+ (ite ocupav_1_1_1_0 1 0) (ite ocupav_1_1_1_1 1 0)) ?x187)))
 (let ((?x191 (+ ?x190 ?x188)))
 (<= ?x191 1))))))
(assert
 (let ((?x188 (ite ocupaf_1_1_1_1 1 0)))
 (let ((?x186 (ite ocupaf_1_1_1_0 2 0)))
 (let ((?x185 (ite ocupav_1_1_1_1 1 0)))
 (let ((?x181 (ite ocupav_1_1_1_0 1 0)))
 (let ((?x171 (ite ocupaf_1_1_0_1 1 0)))
 (let ((?x169 (ite ocupaf_1_1_0_0 2 0)))
 (let ((?x168 (ite ocupav_1_1_0_1 1 0)))
 (let ((?x164 (ite ocupav_1_1_0_0 1 0)))
 (let ((?x172 (+ ?x164 ?x168)))
 (<= (+ (+ (+ (+ (+ (+ ?x172 ?x169) ?x171) ?x181) ?x185) ?x186) ?x188) 2)))))))))))
(assert
 (let ((?x188 (ite ocupaf_1_1_1_1 1 0)))
 (let ((?x187 (ite ocupaf_1_1_1_0 1 0)))
 (let ((?x190 (+ (+ (ite ocupav_1_1_1_0 1 0) (ite ocupav_1_1_1_1 1 0)) ?x187)))
 (let ((?x191 (+ ?x190 ?x188)))
 (let ((?x171 (ite ocupaf_1_1_0_1 1 0)))
 (let ((?x170 (ite ocupaf_1_1_0_0 1 0)))
 (let ((?x168 (ite ocupav_1_1_0_1 1 0)))
 (let ((?x164 (ite ocupav_1_1_0_0 1 0)))
 (let ((?x172 (+ ?x164 ?x168)))
 (let ((?x174 (+ (+ ?x172 ?x170) ?x171)))
 (> (+ ?x174 ?x191) 1))))))))))))
(assert
 (=> ocupav_2_0_0_0 x_1_0))
(assert
 (=> ocupav_2_0_0_1 x_1_1))
(assert
 (let ((?x219 (ite ocupaf_2_0_0_1 1 0)))
 (let ((?x218 (ite ocupaf_2_0_0_0 1 0)))
 (let ((?x216 (ite ocupav_2_0_0_1 1 0)))
 (let ((?x212 (ite ocupav_2_0_0_0 1 0)))
 (let ((?x220 (+ ?x212 ?x216)))
 (let ((?x222 (+ (+ ?x220 ?x218) ?x219)))
 (<= ?x222 1))))))))
(assert
 (=> ocupav_2_0_1_0 x_1_0))
(assert
 (=> ocupav_2_0_1_1 x_1_1))
(assert
 (let ((?x236 (ite ocupaf_2_0_1_1 1 0)))
 (let ((?x235 (ite ocupaf_2_0_1_0 1 0)))
 (let ((?x238 (+ (+ (ite ocupav_2_0_1_0 1 0) (ite ocupav_2_0_1_1 1 0)) ?x235)))
 (let ((?x239 (+ ?x238 ?x236)))
 (<= ?x239 1))))))
(assert
 (let ((?x236 (ite ocupaf_2_0_1_1 1 0)))
 (let ((?x234 (ite ocupaf_2_0_1_0 2 0)))
 (let ((?x233 (ite ocupav_2_0_1_1 1 0)))
 (let ((?x229 (ite ocupav_2_0_1_0 1 0)))
 (let ((?x219 (ite ocupaf_2_0_0_1 1 0)))
 (let ((?x217 (ite ocupaf_2_0_0_0 2 0)))
 (let ((?x216 (ite ocupav_2_0_0_1 1 0)))
 (let ((?x212 (ite ocupav_2_0_0_0 1 0)))
 (let ((?x220 (+ ?x212 ?x216)))
 (<= (+ (+ (+ (+ (+ (+ ?x220 ?x217) ?x219) ?x229) ?x233) ?x234) ?x236) 2)))))))))))
(assert
 (let ((?x236 (ite ocupaf_2_0_1_1 1 0)))
 (let ((?x235 (ite ocupaf_2_0_1_0 1 0)))
 (let ((?x238 (+ (+ (ite ocupav_2_0_1_0 1 0) (ite ocupav_2_0_1_1 1 0)) ?x235)))
 (let ((?x239 (+ ?x238 ?x236)))
 (let ((?x219 (ite ocupaf_2_0_0_1 1 0)))
 (let ((?x218 (ite ocupaf_2_0_0_0 1 0)))
 (let ((?x216 (ite ocupav_2_0_0_1 1 0)))
 (let ((?x212 (ite ocupav_2_0_0_0 1 0)))
 (let ((?x220 (+ ?x212 ?x216)))
 (let ((?x222 (+ (+ ?x220 ?x218) ?x219)))
 (> (+ ?x222 ?x239) 1))))))))))))
(assert
 (=> ocupav_2_1_0_0 x_1_0))
(assert
 (=> ocupav_2_1_0_1 x_1_1))
(assert
 (let ((?x267 (ite ocupaf_2_1_0_1 1 0)))
 (let ((?x266 (ite ocupaf_2_1_0_0 1 0)))
 (let ((?x264 (ite ocupav_2_1_0_1 1 0)))
 (let ((?x260 (ite ocupav_2_1_0_0 1 0)))
 (let ((?x268 (+ ?x260 ?x264)))
 (let ((?x270 (+ (+ ?x268 ?x266) ?x267)))
 (<= ?x270 1))))))))
(assert
 (=> ocupav_2_1_1_0 x_1_0))
(assert
 (=> ocupav_2_1_1_1 x_1_1))
(assert
 (let ((?x284 (ite ocupaf_2_1_1_1 1 0)))
 (let ((?x283 (ite ocupaf_2_1_1_0 1 0)))
 (let ((?x286 (+ (+ (ite ocupav_2_1_1_0 1 0) (ite ocupav_2_1_1_1 1 0)) ?x283)))
 (let ((?x287 (+ ?x286 ?x284)))
 (<= ?x287 1))))))
(assert
 (let ((?x284 (ite ocupaf_2_1_1_1 1 0)))
 (let ((?x282 (ite ocupaf_2_1_1_0 2 0)))
 (let ((?x281 (ite ocupav_2_1_1_1 1 0)))
 (let ((?x277 (ite ocupav_2_1_1_0 1 0)))
 (let ((?x267 (ite ocupaf_2_1_0_1 1 0)))
 (let ((?x265 (ite ocupaf_2_1_0_0 2 0)))
 (let ((?x264 (ite ocupav_2_1_0_1 1 0)))
 (let ((?x260 (ite ocupav_2_1_0_0 1 0)))
 (let ((?x268 (+ ?x260 ?x264)))
 (<= (+ (+ (+ (+ (+ (+ ?x268 ?x265) ?x267) ?x277) ?x281) ?x282) ?x284) 2)))))))))))
(assert
 (let ((?x284 (ite ocupaf_2_1_1_1 1 0)))
 (let ((?x283 (ite ocupaf_2_1_1_0 1 0)))
 (let ((?x286 (+ (+ (ite ocupav_2_1_1_0 1 0) (ite ocupav_2_1_1_1 1 0)) ?x283)))
 (let ((?x287 (+ ?x286 ?x284)))
 (let ((?x267 (ite ocupaf_2_1_0_1 1 0)))
 (let ((?x266 (ite ocupaf_2_1_0_0 1 0)))
 (let ((?x264 (ite ocupav_2_1_0_1 1 0)))
 (let ((?x260 (ite ocupav_2_1_0_0 1 0)))
 (let ((?x268 (+ ?x260 ?x264)))
 (let ((?x270 (+ (+ ?x268 ?x266) ?x267)))
 (> (+ ?x270 ?x287) 1))))))))))))
(assert
 (let ((?x78 (ite ocupaf_0_0_1_1 1 0)))
 (let ((?x76 (ite ocupaf_0_0_1_0 2 0)))
 (let ((?x82 (+ (+ (ite ocupaf_0_0_0_0 2 0) (ite ocupaf_0_0_0_1 1 0)) ?x76)))
 (let ((?x83 (+ ?x82 ?x78)))
 (= var_0_0_0 ?x83))))))
(assert
 (let ((?x99 (ite ocupaf_0_1_1_1 1 0)))
 (let ((?x97 (ite ocupaf_0_1_1_0 2 0)))
 (let ((?x103 (+ (+ (ite ocupaf_0_1_0_0 2 0) (ite ocupaf_0_1_0_1 1 0)) ?x97)))
 (let ((?x104 (+ ?x103 ?x99)))
 (= var_0_1_0 ?x104))))))
(assert
 (let ((?x140 (ite ocupaf_1_0_1_1 1 0)))
 (let ((?x138 (ite ocupaf_1_0_1_0 2 0)))
 (let ((?x321 (ite ocupav_1_0_1_1 var_0_1_0 0)))
 (let ((?x320 (ite ocupav_1_0_1_0 var_0_0_0 0)))
 (let ((?x123 (ite ocupaf_1_0_0_1 1 0)))
 (let ((?x121 (ite ocupaf_1_0_0_0 2 0)))
 (let ((?x317 (ite ocupav_1_0_0_1 var_0_1_0 0)))
 (let ((?x316 (ite ocupav_1_0_0_0 var_0_0_0 0)))
 (let ((?x330 (+ (+ (+ (+ (+ (+ (+ ?x316 ?x317) ?x121) ?x123) ?x320) ?x321) ?x138) ?x140)))
 (= var_1_0_0 ?x330)))))))))))
(assert
 (let ((?x188 (ite ocupaf_1_1_1_1 1 0)))
 (let ((?x186 (ite ocupaf_1_1_1_0 2 0)))
 (let ((?x336 (ite ocupav_1_1_1_1 var_0_1_0 0)))
 (let ((?x335 (ite ocupav_1_1_1_0 var_0_0_0 0)))
 (let ((?x171 (ite ocupaf_1_1_0_1 1 0)))
 (let ((?x169 (ite ocupaf_1_1_0_0 2 0)))
 (let ((?x334 (ite ocupav_1_1_0_1 var_0_1_0 0)))
 (let ((?x332 (ite ocupav_1_1_0_0 var_0_0_0 0)))
 (let ((?x345 (+ (+ (+ (+ (+ (+ (+ ?x332 ?x334) ?x169) ?x171) ?x335) ?x336) ?x186) ?x188)))
 (= var_1_1_0 ?x345)))))))))))
(assert
 (let ((?x236 (ite ocupaf_2_0_1_1 1 0)))
 (let ((?x234 (ite ocupaf_2_0_1_0 2 0)))
 (let ((?x351 (ite ocupav_2_0_1_1 var_1_1_0 0)))
 (let ((?x350 (ite ocupav_2_0_1_0 var_1_0_0 0)))
 (let ((?x219 (ite ocupaf_2_0_0_1 1 0)))
 (let ((?x217 (ite ocupaf_2_0_0_0 2 0)))
 (let ((?x349 (ite ocupav_2_0_0_1 var_1_1_0 0)))
 (let ((?x347 (ite ocupav_2_0_0_0 var_1_0_0 0)))
 (let ((?x360 (+ (+ (+ (+ (+ (+ (+ ?x347 ?x349) ?x217) ?x219) ?x350) ?x351) ?x234) ?x236)))
 (= var_2_0_0 ?x360)))))))))))
(assert
 (let ((?x284 (ite ocupaf_2_1_1_1 1 0)))
 (let ((?x282 (ite ocupaf_2_1_1_0 2 0)))
 (let ((?x366 (ite ocupav_2_1_1_1 var_1_1_0 0)))
 (let ((?x365 (ite ocupav_2_1_1_0 var_1_0_0 0)))
 (let ((?x267 (ite ocupaf_2_1_0_1 1 0)))
 (let ((?x265 (ite ocupaf_2_1_0_0 2 0)))
 (let ((?x364 (ite ocupav_2_1_0_1 var_1_1_0 0)))
 (let ((?x362 (ite ocupav_2_1_0_0 var_1_0_0 0)))
 (let ((?x375 (+ (+ (+ (+ (+ (+ (+ ?x362 ?x364) ?x265) ?x267) ?x365) ?x366) ?x282) ?x284)))
 (= var_2_1_0 ?x375)))))))))))
(assert
 (=> ocupamv_0_0_0 x_2_0))
(assert
 (=> ocupamv_0_0_1 x_2_1))
(assert
 (let ((?x402 (ite ocupamf_0_1 1 0)))
 (let ((?x401 (ite ocupamf_0_0 1 0)))
 (let ((?x399 (ite ocupamv_0_0_1 1 0)))
 (let ((?x395 (ite ocupamv_0_0_0 1 0)))
 (let ((?x403 (+ ?x395 ?x399)))
 (<= (+ (+ ?x403 ?x401) ?x402) 1)))))))
(assert
 (=> ocupamv_0_1_0 x_2_0))
(assert
 (=> ocupamv_0_1_1 x_2_1))
(assert
 (let ((?x402 (ite ocupamf_0_1 1 0)))
 (let ((?x401 (ite ocupamf_0_0 1 0)))
 (let ((?x418 (+ (+ (ite ocupamv_0_1_0 1 0) (ite ocupamv_0_1_1 1 0)) ?x401)))
 (<= (+ ?x418 ?x402) 1)))))
(assert
 (let ((?x402 (ite ocupamf_0_1 1 0)))
 (let ((?x400 (ite ocupamf_0_0 2 0)))
 (let ((?x416 (ite ocupamv_0_1_1 1 0)))
 (let ((?x412 (ite ocupamv_0_1_0 1 0)))
 (let ((?x399 (ite ocupamv_0_0_1 1 0)))
 (let ((?x395 (ite ocupamv_0_0_0 1 0)))
 (let ((?x403 (+ ?x395 ?x399)))
 (<= (+ (+ (+ (+ (+ (+ ?x403 ?x400) ?x402) ?x412) ?x416) ?x400) ?x402) 2)))))))))
(assert
 (=> ocupamv_1_0_0 x_2_0))
(assert
 (=> ocupamv_1_0_1 x_2_1))
(assert
 (let ((?x444 (ite ocupamf_1_1 1 0)))
 (let ((?x443 (ite ocupamf_1_0 1 0)))
 (let ((?x441 (ite ocupamv_1_0_1 1 0)))
 (let ((?x437 (ite ocupamv_1_0_0 1 0)))
 (let ((?x445 (+ ?x437 ?x441)))
 (<= (+ (+ ?x445 ?x443) ?x444) 1)))))))
(assert
 (=> ocupamv_1_1_0 x_2_0))
(assert
 (=> ocupamv_1_1_1 x_2_1))
(assert
 (let ((?x444 (ite ocupamf_1_1 1 0)))
 (let ((?x443 (ite ocupamf_1_0 1 0)))
 (let ((?x460 (+ (+ (ite ocupamv_1_1_0 1 0) (ite ocupamv_1_1_1 1 0)) ?x443)))
 (<= (+ ?x460 ?x444) 1)))))
(assert
 (let ((?x444 (ite ocupamf_1_1 1 0)))
 (let ((?x442 (ite ocupamf_1_0 2 0)))
 (let ((?x458 (ite ocupamv_1_1_1 1 0)))
 (let ((?x454 (ite ocupamv_1_1_0 1 0)))
 (let ((?x441 (ite ocupamv_1_0_1 1 0)))
 (let ((?x437 (ite ocupamv_1_0_0 1 0)))
 (let ((?x445 (+ ?x437 ?x441)))
 (<= (+ (+ (+ (+ (+ (+ ?x445 ?x442) ?x444) ?x454) ?x458) ?x442) ?x444) 2)))))))))
(assert
 (let ((?x402 (ite ocupamf_0_1 1 0)))
 (let ((?x400 (ite ocupamf_0_0 2 0)))
 (let ((?x479 (ite ocupamv_0_1_1 var_2_1_0 0)))
 (let ((?x478 (ite ocupamv_0_1_0 var_2_0_0 0)))
 (let ((?x477 (ite ocupamv_0_0_1 var_2_1_0 0)))
 (let ((?x476 (ite ocupamv_0_0_0 var_2_0_0 0)))
 (let ((?x486 (+ (+ (+ (+ (+ (+ (+ ?x476 ?x477) ?x400) ?x402) ?x478) ?x479) ?x400) ?x402)))
 (= ?x486 12)))))))))
(assert
 (let ((?x444 (ite ocupamf_1_1 1 0)))
(let ((?x442 (ite ocupamf_1_0 2 0)))
(let ((?x494 (ite ocupamv_1_1_1 var_2_1_0 0)))
(let ((?x493 (ite ocupamv_1_1_0 var_2_0_0 0)))
(let ((?x492 (ite ocupamv_1_0_1 var_2_1_0 0)))
(let ((?x491 (ite ocupamv_1_0_0 var_2_0_0 0)))
(let ((?x501 (+ (+ (+ (+ (+ (+ (+ ?x491 ?x492) ?x442) ?x444) ?x493) ?x494) ?x442) ?x444)))
(= ?x501 12)))))))))
(check-sat)
